(set-info :smt-lib-version 2.6)
(set-logic QF_UFLRA)
(set-info :source |
MathSat group

|)
(set-info :category "random")
(set-info :status sat)
(declare-fun f0_1 (Real) Real)
(declare-fun f0_2 (Real Real) Real)
(declare-fun f0_3 (Real Real Real) Real)
(declare-fun f0_4 (Real Real Real Real) Real)
(declare-fun f1_1 (Real) Real)
(declare-fun f1_2 (Real Real) Real)
(declare-fun f1_3 (Real Real Real) Real)
(declare-fun f1_4 (Real Real Real Real) Real)
(declare-fun x0 () Real)
(declare-fun x1 () Real)
(declare-fun x2 () Real)
(declare-fun x3 () Real)
(declare-fun x4 () Real)
(declare-fun x5 () Real)
(declare-fun x6 () Real)
(declare-fun x7 () Real)
(declare-fun x8 () Real)
(declare-fun x9 () Real)
(declare-fun x10 () Real)
(declare-fun x11 () Real)
(declare-fun x12 () Real)
(declare-fun x13 () Real)
(declare-fun x14 () Real)
(declare-fun x15 () Real)
(declare-fun x16 () Real)
(declare-fun x17 () Real)
(declare-fun x18 () Real)
(declare-fun x19 () Real)
(declare-fun P0 () Bool)
(declare-fun P1 () Bool)
(declare-fun P2 () Bool)
(declare-fun P3 () Bool)
(declare-fun P4 () Bool)
(declare-fun P5 () Bool)
(declare-fun P6 () Bool)
(declare-fun P7 () Bool)
(declare-fun P8 () Bool)
(declare-fun P9 () Bool)
(declare-fun P10 () Bool)
(declare-fun P11 () Bool)
(declare-fun P12 () Bool)
(declare-fun P13 () Bool)
(declare-fun P14 () Bool)
(declare-fun P15 () Bool)
(declare-fun P16 () Bool)
(declare-fun P17 () Bool)
(declare-fun P18 () Bool)
(declare-fun P19 () Bool)
(assert (let ((?v_13 (f0_2 x8 x7)) (?v_27 (* 5 x11)) (?v_122 (- (- (* 28 x3) (* 13 x14)) (* 10 x2))) (?v_17 (- (+ (* 12 x2) (* 16 x6)) (* 29 x15))) (?v_138 (f0_1 x5)) (?v_140 (* 17 x9)) (?v_106 (f1_1 x17)) (?v_88 (f1_1 x14)) (?v_29 (f1_2 x16 x19))) (let ((?v_116 (f0_2 x5 ?v_13)) (?v_44 (f0_2 x2 x4)) (?v_62 (f0_2 x8 x1))) (let ((?v_10 (* 9 ?v_62)) (?v_100 (f1_1 x10)) (?v_31 (f0_1 x2)) (?v_14 (f0_2 x14 x0)) (?v_52 (f1_2 x15 x4)) (?v_30 (f1_2 x9 x8))) (let ((?v_26 (- (- (* 15 ?v_88) ?v_10) (* 28 x18))) (?v_38 (f0_1 x6)) (?v_7 (f0_1 x19)) (?v_33 (< ?v_122 24)) (?v_83 (< (+ (- (* 14 x7) (* 5 x8)) (* 10 x10)) 0)) (?v_158 (< ?v_30 3)) (?v_160 (= ?v_138 x10)) (?v_187 (= ?v_31 (f1_1 x1))) (?v_103 (< x11 18)) (?v_174 (< x7 22)) (?v_81 (< x0 19)) (?v_211 (< x8 1)) (?v_65 (< ?v_29 18))) (let ((?v_151 (< ?v_38 11)) (?v_1 (< x4 24)) (?v_89 (< ?v_62 12)) (?v_105 (= x11 ?v_31)) (?v_104 (< ?v_31 7)) (?v_91 (< ?v_44 4)) (?v_136 (< ?v_26 13)) (?v_87 (< ?v_52 13)) (?v_99 (< x1 11)) (?v_173 (< ?v_38 14)) (?v_39 (< ?v_29 11)) (?v_75 (= ?v_14 ?v_26)) (?v_126 (= x15 ?v_100)) (?v_191 (< x11 2)) (?v_121 (< ?v_44 23)) (?v_179 (< ?v_122 17)) (?v_147 (= ?v_30 ?v_31)) (?v_165 (= ?v_30 ?v_62)) (?v_23 (< (f1_1 x13) 20)) (?v_0 (not P3))) (let ((?v_57 (not ?v_1)) (?v_159 (not ?v_83)) (?v_206 (not ?v_151)) (?v_117 (not P8)) (?v_210 (not ?v_91)) (?v_46 (not ?v_160)) (?v_50 (not ?v_158)) (?v_110 (not ?v_81)) (?v_80 (not ?v_136)) (?v_45 (not P5)) (?v_37 (not ?v_33)) (?v_49 (not (< x13 20))) (?v_63 (not ?v_99)) (?v_85 (not ?v_121)) (?v_64 (not ?v_103)) (?v_143 (not P2)) (?v_180 (not P14)) (?v_86 (not P7)) (?v_118 (not ?v_187)) (?v_167 (not P4)) (?v_123 (not P13)) (?v_135 (not P18)) (?v_108 (not ?v_165)) (?v_72 (not P1)) (?v_156 (not ?v_65)) (?v_96 (not P6)) (?v_208 (not ?v_191)) (?v_198 (not ?v_39)) (?v_134 (not ?v_104)) (?v_109 (not (< (f0_1 x8) 7))) (?v_111 (not ?v_89)) (?v_168 (not P10)) (?v_128 (not ?v_126)) (?v_178 (not P16)) (?v_188 (not ?v_179)) (?v_190 (not P17)) (?v_209 (not P15)) (?v_207 (not ?v_211)) (?v_6 (+ (* 22 x9) (* 20 x6) (* 17 x5)))) (let ((?v_183 (< ?v_6 22))) (let ((?v_203 (not ?v_183)) (?v_18 (+ (- (* (- 1) x17) (* 8 x9)) (* 7 x5)))) (let ((?v_24 (f1_1 ?v_18))) (let ((?v_3 (f1_2 (f1_1 x7) ?v_24))) (let ((?v_102 (< (f1_2 ?v_3 (f0_2 x11 x17)) 29)) (?v_9 (- (+ (* (- 16) x3) (* 4 x5)) (* 8 x15)))) (let ((?v_54 (< ?v_9 23))) (let ((?v_34 (not ?v_54)) (?v_5 (< (- (- (* 29 x7) (* 4 x6)) (* 4 x12)) (- 27)))) (let ((?v_12 (not ?v_5)) (?v_124 (< x15 (- 11))) (?v_2 (< (f1_1 x19) (- 1)))) (let ((?v_16 (not ?v_2)) (?v_131 (< ?v_106 (- 22))) (?v_41 (< ?v_7 (- 1)))) (let ((?v_79 (not ?v_41)) (?v_172 (< x11 (- 28)))) (let ((?v_25 (not ?v_172)) (?v_22 (< ?v_3 10)) (?v_84 (< ?v_6 (- 24)))) (let ((?v_112 (not ?v_84)) (?v_11 (< x11 (- 10))) (?v_4 (- (+ (* (- 14) x16) (* 17 x1)) ?v_27))) (let ((?v_166 (< ?v_4 18))) (let ((?v_21 (not ?v_166)) (?v_32 (+ (* (- 9) x7) (* 21 x18) (* 6 ?v_4)))) (let ((?v_19 (< ?v_32 (- 6))) (?v_42 (< ?v_52 (- 7))) (?v_8 (+ (- (* (- 18) x16) (* 22 x17)) ?v_140))) (let ((?v_36 (< ?v_8 9)) (?v_20 (< ?v_6 (- 3))) (?v_15 (- (- (* (- 11) x11) (* 25 x1)) (* 12 ?v_13)))) (let ((?v_59 (+ (- (* 26 ?v_7) (* 9 ?v_17)) (* 5 ?v_15)))) (let ((?v_28 (= ?v_59 ?v_8))) (let ((?v_169 (not ?v_28)) (?v_40 (+ (- (* (- 9) x2) (* 23 x7)) (* 7 x0)))) (let ((?v_73 (< (- (- (* (- 7) ?v_9) ?v_10) (* 22 ?v_40)) (- 16))) (?v_74 (not ?v_11)) (?v_78 (< (f0_1 (- (- (* (- 5) x3) (* 14 ?v_116)) (* 19 x14))) 23)) (?v_48 (< ?v_14 (- 7))) (?v_119 (not (< ?v_15 13))) (?v_161 (< x9 (- 5))) (?v_43 (= ?v_17 ?v_18)) (?v_35 (not ?v_19)) (?v_184 (not ?v_20)) (?v_142 (not ?v_22)) (?v_66 (< ?v_24 (- 19))) (?v_205 (< ?v_7 (- 25)))) (let ((?v_53 (not ?v_205)) (?v_76 (- (- (* (- 2) x13) (* 7 x7)) ?v_27))) (let ((?v_90 (< ?v_76 (- 27))) (?v_82 (+ (- (* (- 24) x17) (* 23 x15)) (* 20 x9)))) (let ((?v_70 (= ?v_29 (f0_1 ?v_82))) (?v_192 (< x18 (- 1)))) (let ((?v_47 (not ?v_192)) (?v_145 (< x12 (- 6))) (?v_60 (< ?v_32 12))) (let ((?v_68 (not ?v_60)) (?v_201 (< ?v_13 (- 22))) (?v_92 (< x18 (- 18)))) (let ((?v_71 (not ?v_92)) (?v_149 (not (< (- (+ (* 18 x3) (* 26 x3)) (* 20 x14)) (- 5)))) (?v_51 (= ?v_40 (+ (- (* 6 x12) (* 13 x5)) (* 26 x0)))) (?v_56 (< (+ (* (- 8) x0) (* 6 x5) (* 13 x17)) (- 17))) (?v_189 (< ?v_32 15)) (?v_55 (< x0 (- 1)))) (let ((?v_98 (not ?v_55)) (?v_115 (- (- (* (- 19) x4) (* 3 x3)) (* 8 x1)))) (let ((?v_58 (< ?v_115 (- 7))) (?v_61 (< x6 (- 4)))) (let ((?v_130 (not ?v_61)) (?v_114 (+ (- (* (- 21) x18) (* 13 x11)) (* 8 x8)))) (let ((?v_101 (< ?v_114 1))) (let ((?v_69 (not ?v_101)) (?v_164 (not (< ?v_59 8))) (?v_133 (< ?v_44 (- 10))) (?v_93 (< ?v_18 (- 3))) (?v_129 (< ?v_8 4)) (?v_181 (not ?v_43)) (?v_94 (< ?v_24 (- 15)))) (let ((?v_67 (not ?v_94)) (?v_77 (not ?v_66)) (?v_157 (< x1 (- 17))) (?v_146 (< ?v_24 27)) (?v_97 (not ?v_70)) (?v_139 (- (- ?v_4 (* 7 ?v_100)) (* 22 x7)))) (let ((?v_107 (< ?v_139 14)) (?v_194 (< ?v_76 1)) (?v_113 (not ?v_78)) (?v_144 (< (- (+ (* 18 x13) (* 7 x19)) (* 5 ?v_82)) 15))) (let ((?v_125 (not ?v_144)) (?v_186 (< ?v_9 14))) (let ((?v_171 (not ?v_186)) (?v_162 (< ?v_88 (- 3))) (?v_141 (not (< x18 (- 19)))) (?v_95 (< x13 (- 11))) (?v_170 (< ?v_17 (- 10))) (?v_154 (not ?v_56)) (?v_182 (< ?v_106 (- 18))) (?v_177 (< ?v_4 (- 23))) (?v_120 (< ?v_114 26)) (?v_127 (< (- (+ ?v_115 (* 26 (f1_1 x2))) (* 22 ?v_116)) (- 11))) (?v_163 (not ?v_124)) (?v_132 (< (- (- (* 19 x12) (* 22 x8)) (* 4 x9)) (- 21)))) (let ((?v_155 (not ?v_132)) (?v_137 (not ?v_127)) (?v_148 (< ?v_29 (- 6))) (?v_193 (not ?v_42)) (?v_153 (not ?v_58)) (?v_152 (= ?v_138 ?v_139)) (?v_176 (< (f0_2 ?v_116 (+ (* (- 28) x9) ?v_140 (* 10 ?v_40))) 22))) (let ((?v_150 (not ?v_176)) (?v_175 (< ?v_4 21))) (let ((?v_200 (not ?v_175)) (?v_185 (not ?v_162)) (?v_202 (not ?v_148)) (?v_197 (not ?v_177)) (?v_195 (= ?v_9 (f1_1 x12))) (?v_196 (not ?v_182)) (?v_204 (not ?v_133)) (?v_199 (or ?v_191 ?v_112)) (?v_212 (not ?v_189))) (and (and (and (and (and (and (and (and (and (and (and (and (and (and (and (and (and (and (and (and (and (and (and (and (and (and (and (and (and (and (and (and (and (and (and (and (and (and (and (and (and (and (and (and (and (and (and (and (and (and (and (and (and (and (and (and (and (and (and (and (and (and (and (and (and (and (and (and (and (and (and (and (and (and (and (and (and (and (and (and (and (and (and (and (and (and (and (and (and (and (and (and (and (and (and (and (and (and (and (and (and (and (and (and (and (and (and (and (and (and (and (and (and (and (and (and (and (and (and (and (and (and (and (and (and (and (and (and (and (and (and (and (and (and (and (and (and (and (and (and (and (and (and (and (and (and (and (and (and (and (and (and (and (and (and (and (and (and (and (and (and (and (and (and (and (and (and (and (and (and (and (and (and (and (and (and (and (and (and (and (and (and (and (and (and (and (and (and (and (and (and (and (and (and (and (and (and (and (and (or (or ?v_102 ?v_34) ?v_0) (or (or ?v_57 ?v_12) ?v_124)) (or (or ?v_16 ?v_0) ?v_131)) (or (or ?v_159 ?v_65) ?v_206)) (or (or ?v_1 ?v_79) ?v_25)) (or (or ?v_75 ?v_2) ?v_22)) (or (or ?v_112 ?v_11) ?v_117)) (or (or P3 ?v_21) ?v_19)) (or (or ?v_5 ?v_210) ?v_42)) (or (or ?v_36 ?v_20) ?v_169)) (or (or ?v_73 ?v_23) ?v_74)) (or (or ?v_12 ?v_33) ?v_78)) (or (or P15 ?v_105) ?v_48)) (or (or ?v_119 ?v_161) P9)) (or (or ?v_16 ?v_46) ?v_43)) (or (or ?v_50 ?v_35) P7)) (or (or ?v_184 ?v_21) ?v_142)) (or (or (not P12) ?v_23) P7)) (or (or ?v_110 ?v_66) ?v_53)) (or (or ?v_25 ?v_80) ?v_90)) (or (or ?v_28 ?v_70) (not ?v_147))) (or (or ?v_47 ?v_45) (not ?v_145))) (or (or ?v_68 ?v_37) (not ?v_201))) (or (or ?v_34 ?v_35) ?v_39)) (or (or ?v_36 ?v_71) ?v_149)) (or (or P8 ?v_37) P10)) (or (or ?v_49 P7) ?v_22)) (or (or (not ?v_173) ?v_39) ?v_51)) (or (or ?v_56 ?v_41) ?v_42)) (or (or ?v_43 ?v_41) ?v_63)) (or (or ?v_174 ?v_189) ?v_98)) (or (or P15 P15) ?v_85)) (or (or ?v_45 ?v_46) ?v_47)) (or (or ?v_48 ?v_64) ?v_49)) (or (or ?v_50 ?v_51) P5)) (or (or (not ?v_87) ?v_53) ?v_143)) (or (or ?v_180 ?v_54) ?v_58)) (or (or P14 ?v_0) ?v_130)) (or (or ?v_55 P18) ?v_86)) (or (or P9 ?v_118) ?v_56)) (or (or ?v_57 ?v_69) ?v_58)) (or (or P18 ?v_164) ?v_183)) (or (or P8 ?v_60) ?v_167)) (or (or ?v_33 ?v_61) ?v_123)) (or (or ?v_89 ?v_133) ?v_93)) (or (or ?v_135 ?v_108) ?v_129)) (or (or ?v_72 ?v_63) ?v_57)) (or (or ?v_20 ?v_181) ?v_64)) (or (or ?v_156 ?v_96) ?v_67)) (or (or ?v_77 ?v_208) ?v_67)) (or (or ?v_1 ?v_157) ?v_11)) (or (or ?v_11 ?v_198) ?v_51)) (or (or ?v_68 ?v_69) ?v_146)) (or (or ?v_97 ?v_71) (not ?v_107))) (or (or ?v_45 ?v_72) ?v_48)) (or (or ?v_73 ?v_74) ?v_75)) (or (or ?v_194 (not ?v_73)) ?v_134)) (or (or ?v_16 ?v_57) ?v_77)) (or (or ?v_113 ?v_79) ?v_80)) (or (or ?v_81 P2) ?v_64)) (or (or ?v_25 ?v_125) ?v_22)) (or (or ?v_83 ?v_109) ?v_54)) (or (or ?v_2 ?v_171) ?v_84)) (or (or ?v_85 ?v_64) ?v_48)) (or (or ?v_86 ?v_87) ?v_162)) (or (or ?v_141 ?v_19) ?v_111)) (or (or ?v_90 ?v_12) ?v_168)) (or (or ?v_91 ?v_92) (not ?v_95))) (or (or ?v_93 P14) ?v_2)) (or (or ?v_0 ?v_94) ?v_80)) (or (or ?v_170 ?v_95) ?v_20)) (or (or ?v_96 ?v_16) ?v_97)) (or (or ?v_36 ?v_98) ?v_99)) (or (or ?v_22 ?v_128) ?v_101)) (or (or ?v_102 ?v_35) ?v_53)) (or (or ?v_103 ?v_154) ?v_104)) (or (or ?v_105 P3) ?v_182)) (or (or ?v_107 ?v_74) ?v_177)) (or (or ?v_108 ?v_109) ?v_110)) (or (or P3 ?v_68) ?v_111)) (or (or ?v_112 ?v_94) ?v_113)) (or (or ?v_54 ?v_120) ?v_97)) (or (or ?v_127 ?v_78) ?v_117)) (or (or ?v_0 ?v_118) ?v_119)) (or (or (not ?v_120) (not ?v_90)) ?v_45)) (or (or ?v_121 ?v_61) P13)) (or (or ?v_120 ?v_65) ?v_23)) (or (or ?v_50 ?v_96) ?v_179)) (or (or ?v_123 ?v_2) ?v_163)) (or (or ?v_111 ?v_125) ?v_155)) (or (or ?v_126 ?v_137) ?v_84)) (or (or ?v_128 P4) ?v_66)) (or (or (not ?v_129) ?v_130) (not ?v_131))) (or (or (not ?v_51) (not ?v_105)) ?v_148)) (or (or ?v_132 ?v_133) ?v_120)) (or (or ?v_113 ?v_193) ?v_153)) (or (or ?v_134 ?v_135) ?v_136)) (or (or ?v_58 ?v_60) ?v_137)) (or (or ?v_85 ?v_152) ?v_150)) (or (or ?v_61 P18) ?v_89)) (or (or ?v_141 P1) ?v_20)) (or (or ?v_142 ?v_112) ?v_46)) (or (or ?v_124 ?v_107) ?v_5)) (or (or ?v_143 ?v_50) P10)) (or (or ?v_144 ?v_46) ?v_67)) (or (or ?v_21 ?v_111) ?v_145)) (or (or ?v_146 P9) P15)) (or (or ?v_147 ?v_148) ?v_149)) (or (or ?v_150 ?v_131) ?v_151)) (or (or ?v_51 P7) P15)) (or (or ?v_152 P1) ?v_63)) (or (or ?v_153 ?v_127) ?v_1)) (or (or ?v_154 ?v_155) ?v_142)) (or (or ?v_74 ?v_156) ?v_157)) (or (or ?v_53 ?v_109) ?v_200)) (or (or ?v_158 ?v_98) ?v_159)) (or (or ?v_160 ?v_102) ?v_161)) (or (or ?v_152 ?v_185) ?v_112)) (or (or ?v_94 ?v_104) ?v_163)) (or (or ?v_42 ?v_164) ?v_73)) (or (or (not P9) ?v_99) ?v_165)) (or (or ?v_166 ?v_167) ?v_33)) (or (or (not ?v_48) ?v_168) ?v_92)) (or (or ?v_169 P5) P19)) (or (or ?v_130 ?v_170) ?v_148)) (or (or ?v_72 ?v_171) ?v_141)) (or (or P1 P6) ?v_117)) (or (or ?v_86 ?v_172) ?v_173)) (or (or ?v_55 ?v_174) ?v_0)) (or (or ?v_165 (not ?v_146)) ?v_169)) (or (or ?v_78 P9) ?v_175)) (or (or ?v_60 ?v_45) ?v_176)) (or (or ?v_178 P12) ?v_70)) (or (or ?v_202 ?v_47) ?v_133)) (or (or ?v_197 ?v_86) ?v_145)) (or (or ?v_105 ?v_103) ?v_173)) (or (or ?v_171 ?v_135) ?v_104)) (or (or ?v_69 ?v_178) ?v_188)) (or (or ?v_162 ?v_80) ?v_180)) (or (or ?v_97 ?v_161) ?v_80)) (or (or ?v_195 P2) ?v_190)) (or (or ?v_110 ?v_143) ?v_142)) (or (or ?v_159 ?v_99) ?v_49)) (or (or ?v_126 ?v_127) ?v_97)) (or (or ?v_181 P1) ?v_196)) (or (or ?v_20 ?v_142) ?v_172)) (or (or ?v_41 ?v_203) P14)) (or (or ?v_184 ?v_146) ?v_72)) (or (or ?v_47 ?v_95) ?v_109)) (or (or ?v_129 ?v_111) ?v_185)) (or (or (not ?v_93) ?v_186) ?v_104)) (or (or ?v_184 ?v_109) ?v_72)) (or (or ?v_113 P10) ?v_12)) (or (or ?v_129 ?v_77) ?v_187)) (or (or ?v_188 ?v_204) ?v_60)) (or (or ?v_123 ?v_85) ?v_137)) (or (or ?v_189 ?v_209) ?v_42)) (or (or ?v_190 (not ?v_170)) ?v_178)) (or (or ?v_133 ?v_154) ?v_118)) (or (or ?v_118 ?v_135) ?v_49)) (or ?v_199 ?v_192)) (or (or ?v_16 ?v_68) ?v_154)) (or (or ?v_2 ?v_193) ?v_89)) (or (or ?v_65 ?v_135) ?v_22)) (or (or ?v_104 ?v_157) ?v_94)) (or (or ?v_90 ?v_178) ?v_152)) (or (or ?v_81 ?v_194) ?v_195)) (or (or ?v_148 ?v_196) ?v_85)) (or (or ?v_212 ?v_207) ?v_186)) (or (or ?v_147 ?v_103) ?v_197)) (or (or (not ?v_23) ?v_148) ?v_46)) (or (or ?v_73 ?v_34) ?v_126)) (or (or (not P11) P14) ?v_110)) (or (or ?v_19 ?v_98) ?v_150)) (or (or ?v_198 ?v_171) P14)) (or ?v_199 P11)) (or (or ?v_37 ?v_111) ?v_43)) (or (or ?v_118 ?v_73) ?v_200)) (or (or ?v_2 ?v_55) ?v_125)) (or (or ?v_147 P11) ?v_37)) (or (or (not ?v_195) ?v_5) ?v_89)) (or (or ?v_93 ?v_45) ?v_192)) (or (or ?v_158 ?v_43) (not ?v_157))) (or (or ?v_101 ?v_171) ?v_41)) (or (or ?v_193 ?v_112) ?v_201)) (or (or ?v_202 P2) ?v_33)) (or (or ?v_158 ?v_203) ?v_192)) (or (or ?v_170 ?v_51) ?v_45)) (or (or ?v_204 ?v_46) P1)) (or (or ?v_205 ?v_125) ?v_35)) (or (or ?v_55 ?v_206) P8)) (or (or ?v_161 ?v_207) ?v_124)) (or (or ?v_208 ?v_92) ?v_209)) (or (or ?v_68 ?v_210) P17)) (or (or ?v_54 ?v_211) ?v_19)) (or (or ?v_34 ?v_145) ?v_165)) (or (or ?v_134 ?v_168) ?v_161)) (or (or P18 ?v_108) ?v_56)) (or (or ?v_21 ?v_105) ?v_137)) (or (or ?v_22 ?v_136) ?v_212)))))))))))))))))))))))))))))))))))))))))))))))
(check-sat)
(exit)
